
Gurobi 9.1.2 (linux64) logging started Tue Mar 29 22:13:11 2022

Changed value of parameter LogFile to abilene_v-IPLSng.log
   Prev:   Default: 
Changed value of parameter MIPFocus to 1
   Prev: 0  Min: 0  Max: 3  Default: 0
Changed value of parameter TimeLimit to 600.0
   Prev: inf  Min: 0.0  Max: inf  Default: inf
Warning: variables 0 and 54 have the same name "X[ATLAM5,ATLAng]"
Warning: linear constraint 78 and linear constraint 79 have the same name "weight-constr-t5"
Warning: to let Gurobi read it back, use rlp format
Gurobi Optimizer version 9.1.2 build v9.1.2rc0 (linux64)
Thread count: 32 physical cores, 64 logical processors, using up to 32 threads
Optimize a model with 377 rows, 324 columns and 1056 nonzeros
Model fingerprint: 0x0eab1817
Variable types: 72 continuous, 252 integer (252 binary)
Coefficient statistics:
  Matrix range     [1e+00, 1e+06]
  Objective range  [2e-01, 2e-01]
  Bounds range     [1e+00, 5e+05]
  RHS range        [1e+00, 1e+06]
Found heuristic solution: objective 27.1666667
Presolve removed 78 rows and 90 columns
Presolve time: 0.00s
Presolved: 299 rows, 234 columns, 1230 nonzeros
Variable types: 66 continuous, 168 integer (168 binary)

Root relaxation: objective 1.200000e+01, 76 iterations, 0.00 seconds

    Nodes    |    Current Node    |     Objective Bounds      |     Work
 Expl Unexpl |  Obj  Depth IntInf | Incumbent    BestBd   Gap | It/Node Time

     0     0   12.00000    0    6   27.16667   12.00000  55.8%     -    0s
H    0     0                      22.8333333   12.00000  47.4%     -    0s
H    0     0                      22.6666667   12.00000  47.1%     -    0s
     0     0   12.00000    0   10   22.66667   12.00000  47.1%     -    0s
H    0     0                      20.1666667   12.00000  40.5%     -    0s
     0     0   12.00000    0    8   20.16667   12.00000  40.5%     -    0s
H    0     0                      19.6666667   12.00000  39.0%     -    0s
H    0     0                      18.0000000   12.00000  33.3%     -    0s
     0     2   12.00000    0    8   18.00000   12.00000  33.3%     -    0s
H    2     4                      17.8333333   12.00000  32.7%   2.5    0s
H    3     8                      17.0000000   12.00000  29.4%   6.3    0s
H   29    41                      16.8333333   12.00000  28.7%  10.0    0s
H   85    84                      16.3333333   12.00000  26.5%   8.1    0s
H  152   114                      16.1666667   12.00000  25.8%   8.3    0s
H  154   114                      16.1666667   12.00000  25.8%   8.4    0s
H  155   114                      16.0000000   12.00000  25.0%   8.5    0s
H  322   182                      16.0000000   12.00000  25.0%   8.1    0s
*  593   266              15      12.0000035   12.00000  0.00%   7.6    0s

Cutting planes:
  Implied bound: 2
  Flow cover: 1

Explored 666 nodes (5090 simplex iterations) in 0.55 seconds
Thread count was 32 (of 64 available processors)

Solution count 10: 12 16 16.1667 ... 19.6667

Optimal solution found (tolerance 1.00e-04)
Best objective 1.200000349680e+01, best bound 1.200000000000e+01, gap 0.0000%

Gurobi 9.1.2 (linux64) logging started Tue Mar 29 22:38:48 2022

Changed value of parameter LogFile to abilene_v-IPLSng.log
   Prev:   Default: 
Changed value of parameter MIPFocus to 1
   Prev: 0  Min: 0  Max: 3  Default: 0
Changed value of parameter TimeLimit to 600.0
   Prev: inf  Min: 0.0  Max: inf  Default: inf
Warning: variables 0 and 54 have the same name "X[ATLAM5,ATLAng]"
Warning: linear constraint 78 and linear constraint 79 have the same name "weight-constr-t5"
Warning: to let Gurobi read it back, use rlp format
Gurobi Optimizer version 9.1.2 build v9.1.2rc0 (linux64)
Thread count: 32 physical cores, 64 logical processors, using up to 32 threads
Optimize a model with 377 rows, 324 columns and 1056 nonzeros
Model fingerprint: 0xff9a60d2
Variable types: 72 continuous, 252 integer (252 binary)
Coefficient statistics:
  Matrix range     [1e+00, 1e+06]
  Objective range  [2e-01, 2e-01]
  Bounds range     [1e+00, 5e+05]
  RHS range        [1e+00, 1e+06]
Presolve removed 78 rows and 90 columns
Presolve time: 0.00s
Presolved: 299 rows, 234 columns, 1230 nonzeros
Variable types: 66 continuous, 168 integer (168 binary)

Root relaxation: objective 1.200000e+01, 54 iterations, 0.00 seconds

    Nodes    |    Current Node    |     Objective Bounds      |     Work
 Expl Unexpl |  Obj  Depth IntInf | Incumbent    BestBd   Gap | It/Node Time

     0     0   12.00000    0   11          -   12.00000      -     -    0s
H    0     0                      28.1666667   12.00000  57.4%     -    0s
H    0     0                      19.6666667   12.00000  39.0%     -    0s
     0     0   12.00000    0   13   19.66667   12.00000  39.0%     -    0s
H    0     0                      19.5000000   12.00000  38.5%     -    0s
     0     0   12.00000    0   16   19.50000   12.00000  38.5%     -    0s
     0     0   12.00000    0   11   19.50000   12.00000  38.5%     -    0s
H    0     0                      18.8333333   12.00000  36.3%     -    0s
     0     0   12.00000    0   11   18.83333   12.00000  36.3%     -    0s
     0     0   12.00000    0   11   18.83333   12.00000  36.3%     -    0s
     0     0   12.00000    0   13   18.83333   12.00000  36.3%     -    0s
H    0     0                      18.6666667   12.00000  35.7%     -    0s
     0     0   12.00000    0   12   18.66667   12.00000  35.7%     -    0s
     0     0   12.00000    0   12   18.66667   12.00000  35.7%     -    0s
H    0     0                      18.5000000   12.00000  35.1%     -    0s
     0     2   12.00000    0    2   18.50000   12.00000  35.1%     -    0s
*    5     4               2      12.0000000   12.00000  0.00%  11.4    0s

Cutting planes:
  Cover: 1
  Implied bound: 4
  MIR: 3
  Flow cover: 12

Explored 7 nodes (406 simplex iterations) in 0.16 seconds
Thread count was 32 (of 64 available processors)

Solution count 7: 12 18.5 18.6667 ... 28.1667

Optimal solution found (tolerance 1.00e-04)
Warning: max constraint violation (2.0976e-05) exceeds tolerance
Best objective 1.200000000000e+01, best bound 1.200000000000e+01, gap 0.0000%
